122705
0,4,5,9,11,12,14,18,19,21,22,23,26,27,29,30,32,33,34,35,40,43,48,51,52,53,54,55,57,58,60,63,66,67,68,69,71,73,75,77,78,79,80,81,83,84,85,86,87,90,93,96,97,99,101,103,104,106,111,112,113,114,118,119,122,124,127,130,131,132,135,136,137,138,139,140,142,143,147,148,149,151,155,157,158,160,161,163,164,165,166,170,172,173,174,176,177,242,265,1267
